jobs  (incl. supersource/sink ):	52
RESOURCES
- renewable                 : 4 R
- nonrenewable              : 4 N
- doubly constrained        : 0 D
************************************************************************
PRECEDENCE RELATIONS:
jobnr.    #modes  #successors   successors
1	1	15		2 3 4 5 6 7 8 9 11 12 13 14 15 18 34 
2	6	10		48 46 45 33 31 30 27 25 21 17 
3	6	7		49 47 33 29 20 17 10 
4	6	8		50 44 31 26 25 24 20 17 
5	6	8		51 50 47 46 45 29 17 16 
6	6	13		51 50 49 48 46 45 44 42 40 39 31 29 23 
7	6	11		49 48 47 46 42 41 38 32 31 26 21 
8	6	10		51 49 47 45 40 33 31 29 28 23 
9	6	8		50 48 47 43 42 30 29 19 
10	6	9		50 46 44 42 40 39 31 26 23 
11	6	8		43 41 40 39 38 33 31 26 
12	6	6		49 43 40 31 26 22 
13	6	7		46 44 42 40 39 35 23 
14	6	6		49 44 43 41 31 26 
15	6	5		45 42 37 36 25 
16	6	7		48 43 41 40 36 35 32 
17	6	4		40 37 35 23 
18	6	6		42 41 40 37 35 32 
19	6	5		46 40 36 32 31 
20	6	5		48 43 42 38 37 
21	6	5		44 40 39 37 36 
22	6	5		41 39 38 37 35 
23	6	4		43 41 38 36 
24	6	4		42 39 37 36 
25	6	2		47 29 
26	6	3		45 37 36 
27	6	3		51 37 35 
28	6	3		44 42 37 
29	6	2		38 35 
30	6	2		44 35 
31	6	1		35 
32	6	1		39 
33	6	1		42 
34	6	1		36 
35	6	1		52 
36	6	1		52 
37	6	1		52 
38	6	1		52 
39	6	1		52 
40	6	1		52 
41	6	1		52 
42	6	1		52 
43	6	1		52 
44	6	1		52 
45	6	1		52 
46	6	1		52 
47	6	1		52 
48	6	1		52 
49	6	1		52 
50	6	1		52 
51	6	1		52 
52	1	0		
************************************************************************
REQUESTS/DURATIONS
jobnr.	mode	dur	R1	R2	R3	R4	N1	N2	N3	N4	
------------------------------------------------------------------------
1	1	0	0	0	0	0	0	0	0	0	
2	1	5	2	3	4	5	27	13	25	20	
	2	9	2	2	3	5	24	13	24	20	
	3	11	2	2	3	5	23	13	24	20	
	4	13	2	2	3	5	23	13	23	20	
	5	15	2	2	2	5	21	12	23	20	
	6	22	2	2	1	5	21	12	23	20	
3	1	9	4	1	4	3	19	14	18	20	
	2	10	4	1	3	3	19	12	14	18	
	3	17	4	1	3	3	17	10	12	15	
	4	24	4	1	3	3	16	9	9	14	
	5	29	3	1	2	3	16	8	6	11	
	6	30	3	1	2	3	15	7	3	10	
4	1	1	2	5	5	2	22	16	17	7	
	2	17	2	4	5	2	21	16	16	7	
	3	18	2	4	5	2	19	15	16	6	
	4	21	2	4	5	1	14	14	16	5	
	5	22	2	4	5	1	14	12	16	4	
	6	30	2	4	5	1	11	12	16	3	
5	1	5	5	5	4	4	21	9	30	21	
	2	12	5	4	4	4	20	7	28	19	
	3	14	5	4	4	4	20	7	28	18	
	4	16	5	3	4	3	19	6	27	18	
	5	26	5	3	4	3	19	4	25	16	
	6	28	5	3	4	3	18	4	25	16	
6	1	3	4	3	5	4	17	24	14	12	
	2	12	3	2	4	4	16	20	11	10	
	3	13	2	2	4	4	16	16	10	9	
	4	14	2	2	4	3	15	12	9	8	
	5	19	1	2	3	2	15	11	8	7	
	6	25	1	2	3	2	14	7	5	5	
7	1	10	5	4	2	3	21	26	28	19	
	2	13	4	4	2	3	21	23	25	18	
	3	14	3	4	2	3	16	20	21	16	
	4	15	3	3	2	3	13	17	19	14	
	5	22	3	3	2	3	11	12	12	12	
	6	28	2	3	2	3	7	9	9	11	
8	1	8	4	3	4	4	24	17	11	27	
	2	11	4	2	3	4	22	16	11	26	
	3	12	4	2	3	3	20	14	11	24	
	4	22	3	2	3	3	18	13	10	23	
	5	23	3	1	2	2	15	12	9	23	
	6	27	3	1	2	2	12	11	9	21	
9	1	2	4	4	4	5	13	6	21	28	
	2	3	3	4	4	4	12	5	21	28	
	3	4	2	4	4	3	11	5	21	25	
	4	5	2	3	4	3	7	5	20	22	
	5	16	2	3	4	3	6	5	19	20	
	6	27	1	2	4	2	4	5	19	20	
10	1	1	4	3	2	3	28	10	25	30	
	2	17	3	3	1	3	26	9	24	25	
	3	21	3	3	1	3	24	7	21	21	
	4	24	3	2	1	3	21	5	18	13	
	5	25	1	1	1	3	15	3	17	7	
	6	27	1	1	1	3	15	2	16	5	
11	1	2	5	3	5	3	20	22	28	20	
	2	6	4	2	4	2	18	19	20	18	
	3	8	3	2	3	2	18	18	15	15	
	4	26	3	2	3	2	15	12	15	14	
	5	29	3	2	2	2	12	9	7	11	
	6	30	2	2	2	2	11	8	1	9	
12	1	6	4	2	4	4	17	28	23	16	
	2	10	3	2	4	4	16	24	19	14	
	3	12	3	2	4	4	16	22	16	11	
	4	13	3	2	3	4	15	17	14	11	
	5	18	3	1	3	4	15	14	9	8	
	6	20	3	1	2	4	14	11	4	5	
13	1	1	2	3	5	5	9	21	30	21	
	2	2	2	3	4	4	7	19	28	18	
	3	10	2	3	3	4	7	17	25	14	
	4	20	1	3	3	3	7	17	22	12	
	5	22	1	3	2	3	6	14	20	8	
	6	27	1	3	1	3	5	13	20	6	
14	1	1	4	4	3	4	21	13	24	2	
	2	2	4	3	2	3	18	12	20	2	
	3	3	3	3	2	3	18	12	18	2	
	4	6	3	3	2	3	11	11	17	2	
	5	8	2	2	2	3	10	9	15	1	
	6	28	1	2	2	3	7	9	12	1	
15	1	10	3	4	5	4	21	13	20	30	
	2	12	3	4	5	4	20	12	17	23	
	3	16	3	3	5	4	16	9	12	18	
	4	23	3	3	5	4	15	7	9	13	
	5	26	3	3	5	4	14	7	8	11	
	6	27	3	2	5	4	11	5	4	6	
16	1	1	4	3	1	4	17	27	29	28	
	2	2	4	3	1	3	16	26	27	22	
	3	14	3	3	1	3	16	25	27	22	
	4	16	3	3	1	2	14	25	26	15	
	5	20	1	3	1	1	13	24	26	12	
	6	29	1	3	1	1	13	24	25	10	
17	1	5	3	5	2	5	16	20	3	18	
	2	17	2	4	1	4	15	19	2	15	
	3	27	2	3	1	4	12	18	2	15	
	4	28	2	3	1	3	10	17	2	12	
	5	29	1	3	1	2	8	15	2	8	
	6	30	1	2	1	2	6	13	2	6	
18	1	12	3	5	5	5	12	21	9	10	
	2	18	2	5	4	4	12	19	7	9	
	3	24	2	5	4	3	8	17	6	9	
	4	25	2	5	4	2	7	15	5	9	
	5	26	2	5	4	2	3	15	4	9	
	6	27	2	5	4	1	1	14	3	9	
19	1	16	4	1	5	4	24	28	25	13	
	2	18	4	1	4	4	20	26	22	13	
	3	22	4	1	4	3	20	25	17	12	
	4	23	4	1	4	3	16	25	16	10	
	5	25	4	1	4	3	15	22	12	10	
	6	27	4	1	4	2	14	21	10	8	
20	1	2	4	4	3	3	16	22	17	15	
	2	6	3	4	2	3	13	19	15	15	
	3	9	2	4	2	3	13	12	15	14	
	4	13	2	4	2	2	9	11	13	12	
	5	15	1	4	2	2	9	5	11	11	
	6	20	1	4	2	1	7	2	10	11	
21	1	2	1	4	1	4	17	12	17	30	
	2	16	1	3	1	4	13	9	17	22	
	3	17	1	3	1	4	11	8	16	19	
	4	18	1	3	1	4	8	5	16	15	
	5	20	1	3	1	4	8	5	14	10	
	6	28	1	3	1	4	4	2	14	7	
22	1	4	4	1	3	3	23	21	13	10	
	2	8	4	1	3	3	23	17	12	9	
	3	12	4	1	3	3	20	16	11	7	
	4	13	4	1	3	2	20	13	11	7	
	5	14	4	1	2	2	18	12	11	5	
	6	21	4	1	2	2	16	10	10	5	
23	1	5	3	2	5	5	21	12	25	17	
	2	6	3	2	4	3	20	11	23	16	
	3	9	3	2	4	3	19	10	23	14	
	4	12	3	2	4	3	17	7	22	13	
	5	17	3	2	3	1	15	5	20	12	
	6	24	3	2	3	1	12	4	19	9	
24	1	2	3	3	5	4	27	19	21	29	
	2	5	3	2	3	3	27	18	21	28	
	3	11	3	2	3	3	26	17	20	26	
	4	13	3	2	3	2	26	17	19	25	
	5	21	3	2	2	1	24	15	19	25	
	6	22	3	2	1	1	24	14	18	23	
25	1	5	4	2	5	4	20	25	19	26	
	2	16	4	2	4	3	15	25	18	18	
	3	19	4	2	4	3	12	25	18	15	
	4	23	4	2	3	3	11	25	18	11	
	5	28	4	1	2	3	7	25	17	7	
	6	29	4	1	2	3	5	25	17	4	
26	1	15	3	1	4	3	12	11	17	23	
	2	19	2	1	4	3	10	9	13	23	
	3	21	2	1	4	3	7	8	12	23	
	4	26	2	1	4	2	6	4	12	22	
	5	27	1	1	4	2	5	2	9	22	
	6	29	1	1	4	2	3	1	8	22	
27	1	7	2	2	3	4	7	10	15	8	
	2	8	2	1	3	4	6	9	15	8	
	3	9	2	1	3	4	6	9	14	5	
	4	13	2	1	3	4	5	9	12	4	
	5	19	2	1	3	4	5	8	10	2	
	6	30	2	1	3	4	5	8	9	1	
28	1	6	1	3	3	4	21	24	22	20	
	2	7	1	3	2	4	18	21	17	17	
	3	14	1	3	2	3	16	18	16	17	
	4	20	1	3	2	3	14	16	11	12	
	5	25	1	2	1	2	13	13	9	12	
	6	27	1	2	1	1	12	8	6	7	
29	1	11	1	2	3	4	17	26	30	23	
	2	15	1	2	3	4	15	22	26	22	
	3	17	1	2	3	4	11	18	25	22	
	4	18	1	2	3	4	10	17	21	21	
	5	27	1	2	3	4	7	13	21	20	
	6	30	1	2	3	4	7	7	18	20	
30	1	2	4	5	3	4	26	6	15	21	
	2	8	4	4	3	3	26	6	15	21	
	3	10	4	4	2	2	26	6	14	21	
	4	19	4	4	2	2	26	6	12	20	
	5	25	4	3	2	2	25	6	12	19	
	6	28	4	3	1	1	25	6	11	19	
31	1	4	5	4	4	3	5	3	15	23	
	2	5	4	4	4	2	5	3	11	22	
	3	13	4	4	4	2	5	3	10	22	
	4	14	3	3	3	1	5	3	9	21	
	5	17	3	3	3	1	4	2	6	20	
	6	27	3	2	2	1	4	2	4	20	
32	1	2	4	4	3	3	11	23	22	25	
	2	8	3	3	2	2	10	23	20	22	
	3	16	3	3	2	2	10	19	14	21	
	4	21	2	2	2	2	9	15	11	19	
	5	29	2	2	1	2	8	13	5	15	
	6	30	2	1	1	2	7	11	2	13	
33	1	6	4	5	3	3	26	27	29	18	
	2	13	4	4	3	2	23	25	26	17	
	3	14	4	4	3	2	23	25	25	14	
	4	16	4	3	3	2	22	23	24	9	
	5	20	4	2	3	1	20	23	22	5	
	6	28	4	2	3	1	18	21	21	5	
34	1	11	3	5	1	4	17	17	12	27	
	2	12	3	5	1	3	13	17	8	25	
	3	16	3	5	1	3	12	15	7	25	
	4	20	3	5	1	2	9	14	5	24	
	5	21	3	5	1	2	5	13	3	24	
	6	23	3	5	1	1	2	13	2	23	
35	1	6	3	5	4	1	24	22	23	14	
	2	10	2	3	3	1	21	18	23	13	
	3	18	2	3	3	1	18	17	19	10	
	4	19	1	2	3	1	13	12	18	7	
	5	24	1	1	3	1	10	12	14	6	
	6	25	1	1	3	1	6	8	14	5	
36	1	15	2	2	5	4	26	25	8	18	
	2	17	2	1	5	4	26	22	8	17	
	3	21	2	1	5	3	26	21	7	16	
	4	22	2	1	5	2	26	19	7	12	
	5	25	2	1	5	2	25	17	5	11	
	6	29	2	1	5	1	25	13	5	6	
37	1	7	5	2	3	4	25	8	15	16	
	2	8	4	2	3	4	21	5	13	13	
	3	14	4	2	3	3	15	5	12	13	
	4	17	4	2	3	3	13	4	11	11	
	5	27	4	2	3	2	10	3	8	10	
	6	30	4	2	3	2	5	2	7	8	
38	1	7	4	4	2	4	24	28	25	30	
	2	11	3	3	1	3	24	24	25	27	
	3	14	3	3	1	3	23	24	23	27	
	4	25	3	3	1	2	23	20	23	24	
	5	27	3	2	1	2	22	18	20	23	
	6	28	3	2	1	2	22	17	19	22	
39	1	2	4	3	4	3	16	11	13	22	
	2	4	3	3	3	3	14	11	12	21	
	3	10	3	3	3	3	13	11	10	19	
	4	14	3	2	3	2	7	11	10	17	
	5	15	3	2	3	2	4	11	9	16	
	6	26	3	2	3	1	1	11	8	14	
40	1	1	3	4	5	1	28	28	8	21	
	2	4	3	3	4	1	25	24	6	16	
	3	12	3	3	4	1	24	23	5	14	
	4	13	2	3	4	1	22	19	3	10	
	5	25	1	3	4	1	20	16	2	9	
	6	26	1	3	4	1	18	14	1	4	
41	1	2	2	3	5	3	26	11	22	27	
	2	4	1	2	4	3	23	10	20	24	
	3	9	1	2	4	3	20	8	19	20	
	4	17	1	1	4	3	20	8	18	20	
	5	19	1	1	4	3	16	6	15	15	
	6	25	1	1	4	3	12	6	14	13	
42	1	3	3	3	4	4	28	14	19	20	
	2	4	3	2	3	3	24	11	18	19	
	3	9	3	2	2	3	23	9	16	19	
	4	17	3	2	2	3	21	5	15	19	
	5	26	3	1	1	3	19	5	14	18	
	6	29	3	1	1	3	17	2	12	18	
43	1	1	3	2	2	4	26	19	21	28	
	2	3	2	2	2	3	22	18	19	27	
	3	15	2	2	2	3	16	14	18	24	
	4	21	2	2	1	2	13	14	14	22	
	5	22	2	2	1	2	11	10	13	21	
	6	28	2	2	1	2	4	9	9	19	
44	1	11	5	3	4	3	28	25	9	23	
	2	14	3	3	3	2	23	25	8	17	
	3	15	3	3	3	2	20	25	8	16	
	4	17	2	3	3	2	17	25	7	12	
	5	26	1	3	2	1	12	25	6	10	
	6	29	1	3	2	1	5	25	6	6	
45	1	1	1	2	2	3	11	21	14	29	
	2	9	1	1	2	2	10	18	13	25	
	3	14	1	1	2	2	9	15	13	23	
	4	16	1	1	1	1	7	12	13	21	
	5	17	1	1	1	1	6	9	13	18	
	6	18	1	1	1	1	6	9	13	13	
46	1	1	5	4	5	4	23	27	7	20	
	2	9	4	3	3	4	18	24	6	19	
	3	17	3	3	3	4	15	22	4	17	
	4	18	3	2	3	4	12	19	4	17	
	5	23	1	1	2	4	9	18	2	15	
	6	29	1	1	1	4	5	13	2	15	
47	1	6	5	4	5	4	12	29	25	22	
	2	9	3	3	5	4	10	25	23	20	
	3	10	3	3	5	4	8	21	21	19	
	4	16	3	2	5	4	8	18	21	16	
	5	22	2	2	5	4	6	16	17	13	
	6	30	1	2	5	4	5	13	15	8	
48	1	2	3	5	5	2	23	10	22	30	
	2	8	3	3	4	2	20	10	21	30	
	3	17	3	3	3	2	17	10	19	30	
	4	21	3	3	3	2	15	10	14	30	
	5	27	3	2	3	2	10	10	13	30	
	6	29	3	1	2	2	8	10	9	30	
49	1	3	4	4	3	2	22	20	13	27	
	2	12	3	4	3	1	20	20	12	27	
	3	15	3	4	3	1	17	19	12	27	
	4	19	2	3	3	1	17	19	11	27	
	5	21	2	3	3	1	14	18	11	27	
	6	22	1	3	3	1	11	18	10	27	
50	1	4	2	2	5	4	16	11	6	26	
	2	9	2	2	4	4	14	10	6	23	
	3	10	2	2	3	4	14	10	6	19	
	4	16	2	2	3	4	12	10	6	17	
	5	23	2	1	2	4	10	10	6	13	
	6	28	2	1	1	4	10	10	6	7	
51	1	7	1	5	2	1	22	27	21	22	
	2	13	1	4	1	1	20	24	21	21	
	3	14	1	4	1	1	16	22	21	21	
	4	16	1	4	1	1	15	20	20	20	
	5	21	1	4	1	1	9	19	19	20	
	6	27	1	4	1	1	7	17	19	19	
52	1	0	0	0	0	0	0	0	0	0	
************************************************************************

 RESOURCE AVAILABILITIES 
	R 1	R 2	R 3	R 4	N 1	N 2	N 3	N 4
	42	41	46	47	875	821	841	937

************************************************************************
